50
50.0
0 49 0.41 0.42
1 48 0.49 0.48
2 47 0.53 0.48
3 46 0.48 0.53
4 45 0.43 0.47
5 44 0.5 0.55
6 43 0.49 0.58
7 42 0.45 0.53
8 41 0.45 0.48
9 40 0.45 0.51
10 39 0.42 0.56
11 38 0.45 0.44
12 37 0.38 0.54
13 36 0.41 0.53
14 35 0.52 0.44
15 34 0.48 0.5
16 33 0.46 0.45
17 32 0.38 0.46
18 31 0.51 0.47
19 30 0.41 0.47
20 29 0.37 0.52
21 28 0.48 0.31
22 27 0.51 0.55
23 26 0.39 0.55
24 25 0.41 0.51
25 24 0.4 0.37
26 23 0.37 0.52
27 22 0.51 0.5
28 21 0.42 0.51
29 20 0.47 0.38
30 19 0.45 0.4
31 18 0.42 0.45
32 17 0.49 0.48
33 16 0.39 0.49
34 15 0.47 0.51
35 14 0.5 0.51
36 13 0.46 0.48
37 12 0.48 0.61
38 11 0.47 0.3
39 10 0.45 0.47
40 9 0.56 0.52
41 8 0.63 0.48
42 7 0.62 0.35
43 6 0.44 0.56
44 5 0.39 0.65
45 4 0.35 0.42
46 3 0.59 0.49
47 2 0.72 0.6
48 1 0.48 0.52
